
Gurobi 9.1.2 (win64, R) logging started Fri Jan 21 15:15:59 2022

Academic license - for non-commercial use only - expires 2022-08-20

Gurobi 9.1.2 (win64, R) logging started Fri Jan 21 15:16:00 2022

Academic license - for non-commercial use only - expires 2022-08-20
Gurobi Optimizer version 9.1.2 build v9.1.2rc0 (win64)
Thread count: 10 physical cores, 20 logical processors, using up to 20 threads
Optimize a model with 14 rows, 98 columns and 98 nonzeros
Model fingerprint: 0xbddc1063
Coefficient statistics:
  Matrix range     [1e+00, 1e+00]
  Objective range  [8e+00, 1e+01]
  Bounds range     [1e+00, 1e+00]
  RHS range        [2e+00, 7e+00]
Presolve removed 1 rows and 33 columns
Presolve time: 0.00s

Solved in 0 iterations and 0.00 seconds
Infeasible model

Gurobi 9.1.2 (win64, R) logging started Fri Jan 21 15:16:00 2022

Academic license - for non-commercial use only - expires 2022-08-20

IIS computed: 1 constraints and 7 bounds
IIS runtime: 0.00 seconds

Gurobi 9.1.2 (win64, R) logging started Fri Jan 21 15:16:00 2022

Academic license - for non-commercial use only - expires 2022-08-20

Gurobi 9.1.2 (win64, R) logging started Fri Jan 21 15:16:00 2022

Academic license - for non-commercial use only - expires 2022-08-20
Gurobi Optimizer version 9.1.2 build v9.1.2rc0 (win64)
Thread count: 10 physical cores, 20 logical processors, using up to 20 threads
Optimize a model with 13 rows, 98 columns and 91 nonzeros
Model fingerprint: 0xd0134630
Coefficient statistics:
  Matrix range     [1e+00, 1e+00]
  Objective range  [8e+00, 1e+01]
  Bounds range     [1e+00, 1e+00]
  RHS range        [2e+00, 7e+00]
Presolve removed 1 rows and 35 columns
Presolve time: 0.00s

Solved in 0 iterations and 0.00 seconds
Infeasible model

Gurobi 9.1.2 (win64, R) logging started Fri Jan 21 15:16:00 2022

Academic license - for non-commercial use only - expires 2022-08-20

IIS computed: 1 constraints and 7 bounds
IIS runtime: 0.00 seconds

Gurobi 9.1.2 (win64, R) logging started Fri Jan 21 15:16:00 2022

Academic license - for non-commercial use only - expires 2022-08-20

Gurobi 9.1.2 (win64, R) logging started Fri Jan 21 15:16:00 2022

Academic license - for non-commercial use only - expires 2022-08-20
Gurobi Optimizer version 9.1.2 build v9.1.2rc0 (win64)
Thread count: 10 physical cores, 20 logical processors, using up to 20 threads
Optimize a model with 12 rows, 98 columns and 84 nonzeros
Model fingerprint: 0x50426357
Coefficient statistics:
  Matrix range     [1e+00, 1e+00]
  Objective range  [8e+00, 1e+01]
  Bounds range     [1e+00, 1e+00]
  RHS range        [2e+00, 7e+00]
Presolve removed 1 rows and 39 columns
Presolve time: 0.00s

Solved in 0 iterations and 0.00 seconds
Infeasible model

Gurobi 9.1.2 (win64, R) logging started Fri Jan 21 15:16:00 2022

Academic license - for non-commercial use only - expires 2022-08-20

IIS computed: 1 constraints and 7 bounds
IIS runtime: 0.00 seconds

Gurobi 9.1.2 (win64, R) logging started Fri Jan 21 15:16:00 2022

Academic license - for non-commercial use only - expires 2022-08-20

Gurobi 9.1.2 (win64, R) logging started Fri Jan 21 15:16:00 2022

Academic license - for non-commercial use only - expires 2022-08-20
Gurobi Optimizer version 9.1.2 build v9.1.2rc0 (win64)
Thread count: 10 physical cores, 20 logical processors, using up to 20 threads
Optimize a model with 11 rows, 98 columns and 77 nonzeros
Model fingerprint: 0x23a14e24
Coefficient statistics:
  Matrix range     [1e+00, 1e+00]
  Objective range  [8e+00, 1e+01]
  Bounds range     [1e+00, 1e+00]
  RHS range        [2e+00, 7e+00]
Presolve removed 1 rows and 43 columns
Presolve time: 0.00s

Solved in 0 iterations and 0.00 seconds
Infeasible model

Gurobi 9.1.2 (win64, R) logging started Fri Jan 21 15:16:00 2022

Academic license - for non-commercial use only - expires 2022-08-20

IIS computed: 1 constraints and 7 bounds
IIS runtime: 0.00 seconds

Gurobi 9.1.2 (win64, R) logging started Fri Jan 21 15:16:00 2022

Academic license - for non-commercial use only - expires 2022-08-20

Gurobi 9.1.2 (win64, R) logging started Fri Jan 21 15:16:00 2022

Academic license - for non-commercial use only - expires 2022-08-20
Gurobi Optimizer version 9.1.2 build v9.1.2rc0 (win64)
Thread count: 10 physical cores, 20 logical processors, using up to 20 threads
Optimize a model with 10 rows, 98 columns and 70 nonzeros
Model fingerprint: 0xa8fcf019
Coefficient statistics:
  Matrix range     [1e+00, 1e+00]
  Objective range  [8e+00, 1e+01]
  Bounds range     [1e+00, 1e+00]
  RHS range        [2e+00, 7e+00]
Presolve removed 10 rows and 98 columns
Presolve time: 0.00s
Presolve: All rows and columns removed
Iteration    Objective       Primal Inf.    Dual Inf.      Time
       0    3.3500000e+02   0.000000e+00   1.480000e+02      0s
Extra simplex iterations after uncrush: 5
       5    3.3500000e+02   0.000000e+00   0.000000e+00      0s

Solved in 5 iterations and 0.00 seconds
Optimal objective  3.350000000e+02
